# Solution for model CCVRPWV
# Objective value = 4.9536767555555554e+02
B0(16) 1
B1(16) 0
B2(16) 0
B3(16) 1
B4(16) 0
B5(16) 0
B6(16) 0
B7(16) 0
B8(16) 1
B9(16) 0
B10(16) 1
B11(16) 0
B12(16) 0
B13(16) 0
B14(16) 1
B15(16) 1
B16(16) 0
B17(16) 0
B18(16) 0
B19(16) 1
B20(16) 0
B21(16) 0
B22(16) 1
B23(16) 0
B24(16) 1
B25(16) 0
B26(16) 0
B27(16) 1
B28(16) 0
B29(16) 0
B30(0) 0
B31(0) 0
B32(0) 0
B33(0) 0
B34(0) 0
B35(0) 0
B36(0) 0
B37(0) 0
B38(0) 0
B39(0) 0
B40(0) 0
B41(0) 0
B42(0) 0
B43(0) 0
B44(0) 0
B45(0) 0
B46(0) 0
B47(0) 0
B48(0) 0
B49(0) 0
B50(0) 0
B51(0) 0
B52(0) 0
B53(0) 0
B54(0) 0
B55(0) 0
B56(0) 0
B57(0) 0
B58(0) 0
B59(0) 0
B60(0) 0
B61(0) 0
B62(0) 0
B63(0) 0
B64(0) 0
B65(0) 0
B66(6) 1
B67(6) 1
B68(6) 1
B69(6) 1
B70(7) 0
B71(7) 0
B72(7) 0
B73(7) 0
B74(7) 0
B75(7) 0
B76(7) 0
B77(7) 0
B78(6) 0
B79(6) 0
B80(6) 0
B81(6) 0
B82(7) 0
B83(7) 0
B84(7) 0
B85(7) 0
B86(7) 0
B87(7) 0
B88(7) 0
B89(7) 0
B90(6) 0
B91(6) 0
B92(6) 0
B93(6) 0
B94(7) 0
B95(7) 0
B96(7) 0
B97(7) 0
B98(7) 0
B99(7) 0
B100(7) 0
B101(7) 0
B102(6) 0
B103(6) 0
B104(6) 0
B105(6) 0
B106(7) 0
B107(7) 0
B108(7) 0
B109(7) 0
B110(7) 0
B111(7) 0
B112(7) 0
B113(7) 0
B114(6) 0
B115(6) 0
B116(6) 0
B117(6) 0
B118(7) 0
B119(7) 0
B120(7) 0
B121(7) 0
B122(7) 0
B123(7) 0
B124(7) 0
B125(7) 0
B126(6) 0
B127(6) 0
B128(6) 0
B129(6) 0
B130(7) 0
B131(7) 0
B132(7) 0
B133(7) 0
B134(7) 0
B135(7) 0
B136(7) 0
B137(7) 0
B138(6) 0
B139(6) 0
B140(6) 0
B141(6) 0
B142(7) 0
B143(7) 0
B144(7) 0
B145(7) 0
B146(7) 0
B147(7) 0
B148(7) 0
B149(7) 0
B150(6) 0
B151(6) 0
B152(6) 0
B153(6) 0
B154(7) 0
B155(7) 0
B156(7) 0
B157(7) 0
B158(7) 0
B159(7) 0
B160(7) 0
B161(7) 0
B162(6) 0
B163(6) 0
B164(6) 0
B165(6) 0
B166(7) 0
B167(7) 0
B168(7) 0
B169(7) 0
B170(7) 0
B171(7) 0
B172(7) 0
B173(7) 0
B174(6) 0
B175(6) 0
B176(6) 0
B177(6) 0
B178(7) 0
B179(7) 0
B180(7) 0
B181(7) 0
B182(7) 0
B183(7) 0
B184(7) 0
B185(7) 0
B186(0) 0
B187(0) 0
B188(0) 0
B189(0) 0
B190(0) 0
B191(0) 0
B192(0) 0
B193(0) 0
B194(0) 0
B195(0) 0
B196(0) 0
B197(0) 0
B198(0) 0
B199(0) 0
B200(0) 0
B201(0) 0
B202(0) 0
B203(0) 0
B204(0) 0
B205(0) 0
B206(0) 0
B207(0) 0
B208(0) 0
B209(0) 0
B210(0) 0
B211(0) 0
B212(0) 0
B213(0) 0
B214(0) 0
B215(0) 0
B216(0) 0
B217(0) 0
B218(0) 0
B219(0) 0
B220(0) 0
B221(0) 0
B222(7) 0
B223(7) 0
B224(7) 0
B225(7) 0
B226(6) 0
B227(6) 0
B228(6) 0
B229(6) 0
B230(7) 0
B231(7) 0
B232(7) 0
B233(7) 0
B234(7) 0
B235(7) 0
B236(7) 0
B237(7) 0
B238(6) 0
B239(6) 0
B240(6) 0
B241(6) 0
B242(7) 0
B243(7) 0
B244(7) 0
B245(7) 0
B246(7) 0
B247(7) 0
B248(7) 0
B249(7) 0
B250(6) 0
B251(6) 0
B252(6) 0
B253(6) 0
B254(7) 0
B255(7) 0
B256(7) 0
B257(7) 0
B258(7) 0
B259(7) 0
B260(7) 0
B261(7) 0
B262(6) 0
B263(6) 0
B264(6) 0
B265(6) 0
B266(7) 0
B267(7) 0
B268(7) 0
B269(7) 0
B270(7) 0
B271(7) 0
B272(7) 0
B273(7) 0
B274(6) 0
B275(6) 0
B276(6) 0
B277(6) 0
B278(7) 0
B279(7) 0
B280(7) 0
B281(7) 0
B282(7) 0
B283(7) 0
B284(7) 0
B285(7) 0
B286(6) 0
B287(6) 0
B288(6) 0
B289(6) 0
B290(7) 0
B291(7) 0
B292(7) 0
B293(7) 0
B294(7) 0
B295(7) 0
B296(7) 0
B297(7) 0
B298(6) 0
B299(6) 0
B300(6) 0
B301(6) 0
B302(7) 0
B303(7) 0
B304(7) 0
B305(7) 0
B306(7) 0
B307(7) 0
B308(7) 0
B309(7) 0
B310(6) 1
B311(6) 1
B312(6) 1
B313(6) 1
B314(7) 0
B315(7) 0
B316(7) 0
B317(7) 0
B318(7) 0
B319(7) 0
B320(7) 0
B321(7) 0
B322(6) 0
B323(6) 0
B324(6) 0
B325(6) 0
B326(7) 0
B327(7) 0
B328(7) 0
B329(7) 0
B330(7) 0
B331(7) 0
B332(7) 0
B333(7) 0
B334(6) 0
B335(6) 0
B336(6) 0
B337(6) 0
B338(7) 0
B339(7) 0
B340(7) 0
B341(7) 0
B342(0) 0
B343(0) 0
B344(0) 0
B345(0) 0
B346(0) 0
B347(0) 0
B348(0) 0
B349(0) 0
B350(0) 0
B351(0) 0
B352(0) 0
B353(0) 0
B354(0) 0
B355(0) 0
B356(0) 0
B357(0) 0
B358(0) 0
B359(0) 0
B360(0) 0
B361(0) 0
B362(0) 0
B363(0) 0
B364(0) 0
B365(0) 0
B366(0) 0
B367(0) 0
B368(0) 0
B369(0) 0
B370(0) 0
B371(0) 0
B372(0) 0
B373(0) 0
B374(0) 0
B375(0) 0
B376(0) 0
B377(0) 0
B378(7) 0
B379(7) 0
B380(7) 0
B381(7) 0
B382(7) 0
B383(7) 0
B384(7) 0
B385(7) 0
B386(6) 0
B387(6) 0
B388(6) 0
B389(6) 0
B390(7) 0
B391(7) 0
B392(7) 0
B393(7) 0
B394(7) 0
B395(7) 0
B396(7) 0
B397(7) 0
B398(6) 0
B399(6) 0
B400(6) 0
B401(6) 0
B402(7) 0
B403(7) 0
B404(7) 0
B405(7) 0
B406(7) 0
B407(7) 0
B408(7) 0
B409(7) 0
B410(6) 1
B411(6) 1
B412(6) 1
B413(6) 1
B414(7) 0
B415(7) 0
B416(7) 0
B417(7) 0
B418(7) 0
B419(7) 0
B420(7) 0
B421(7) 0
B422(6) 0
B423(6) 0
B424(6) 0
B425(6) 0
B426(7) 0
B427(7) 0
B428(7) 0
B429(7) 0
B430(7) 0
B431(7) 0
B432(7) 0
B433(7) 0
B434(6) 0
B435(6) 0
B436(6) 0
B437(6) 0
B438(7) 0
B439(7) 0
B440(7) 0
B441(7) 0
B442(7) 0
B443(7) 0
B444(7) 0
B445(7) 0
B446(6) 0
B447(6) 0
B448(6) 0
B449(6) 0
B450(7) 0
B451(7) 0
B452(7) 0
B453(7) 0
B454(7) 0
B455(7) 0
B456(7) 0
B457(7) 0
B458(6) 0
B459(6) 0
B460(6) 0
B461(6) 0
B462(7) 0
B463(7) 0
B464(7) 0
B465(7) 0
B466(7) 0
B467(7) 0
B468(7) 0
B469(7) 0
B470(6) 0
B471(6) 0
B472(6) 0
B473(6) 0
B474(7) 0
B475(7) 0
B476(7) 0
B477(7) 0
B478(7) 0
B479(7) 0
B480(7) 0
B481(7) 0
B482(6) 0
B483(6) 0
B484(6) 0
B485(6) 0
B486(7) 0
B487(7) 0
B488(7) 0
B489(7) 0
B490(7) 0
B491(7) 0
B492(7) 0
B493(7) 0
B494(6) 0
B495(6) 0
B496(6) 0
B497(6) 0
B498(3) 0
B499(3) 0
B500(3) 0
B501(3) 0
B502(3) 0
B503(3) 0
B504(3) 0
B505(3) 0
B506(3) 0
B507(3) 0
B508(3) 0
B509(3) 0
B510(3) 0
B511(3) 0
B512(3) 0
B513(3) 0
B514(3) 0
B515(3) 0
B516(3) 0
B517(3) 0
B518(3) 0
B519(3) 0
B520(3) 0
B521(3) 0
B522(3) 0
B523(3) 0
B524(3) 0
B525(3) 0
B526(3) 0
B527(3) 0
B528(3) 0
B529(3) 0
B530(3) 0
B531(3) 0
B532(3) 0
B533(3) 0
B534(4) 0
B535(4) 0
B536(4) 0
B537(4) 0
B538(4) 0
B539(4) 0
B540(4) 0
B541(4) 0
B542(4) 0
B543(4) 0
B544(4) 0
B545(4) 0
B546(7) 0
B547(7) 0
B548(7) 0
B549(7) 0
B550(7) 0
B551(7) 0
B552(7) 0
B553(7) 0
B554(7) 0
B555(7) 0
B556(7) 0
B557(7) 0
B558(7) 0
B559(7) 0
B560(7) 0
B561(7) 0
B562(7) 0
B563(7) 0
B564(7) 0
B565(7) 0
B566(7) 0
B567(7) 0
B568(7) 0
B569(7) 0
B570(7) 0
B571(7) 0
B572(7) 0
B573(7) 0
B574(7) 0
B575(7) 0
B576(7) 0
B577(7) 0
B578(7) 0
B579(7) 0
B580(7) 0
B581(7) 0
B582(7) 0
B583(7) 0
B584(7) 0
B585(7) 0
B586(7) 0
B587(7) 0
B588(7) 0
B589(7) 0
B590(7) 0
B591(7) 0
B592(7) 0
B593(7) 0
B594(7) 0
B595(7) 0
B596(7) 0
B597(7) 0
B598(7) 0
B599(7) 0
B600(7) 0
B601(7) 0
B602(7) 0
B603(7) 0
B604(7) 0
B605(7) 0
B606(7) 0
B607(7) 0
B608(7) 0
B609(7) 0
B610(7) 0
B611(7) 0
B612(7) 0
B613(7) 0
B614(7) 0
B615(7) 0
B616(7) 0
B617(7) 0
B618(7) 0
B619(7) 0
B620(7) 0
B621(7) 0
B622(7) 0
B623(7) 0
B624(7) 0
B625(7) 0
B626(7) 0
B627(7) 0
B628(7) 0
B629(7) 0
B630(7) 0
B631(7) 0
B632(7) 0
B633(7) 0
B634(7) 0
B635(7) 0
B636(7) 0
B637(7) 0
B638(7) 0
B639(7) 0
B640(7) 0
B641(7) 0
B642(7) 1
B643(7) 1
B644(7) 1
B645(7) 1
B646(7) 0
B647(7) 0
B648(7) 0
B649(7) 0
B650(7) 0
B651(7) 0
B652(7) 0
B653(7) 0
B654(3) 0
B655(3) 0
B656(3) 0
B657(3) 0
B658(3) 0
B659(3) 0
B660(3) 0
B661(3) 0
B662(3) 0
B663(3) 0
B664(3) 0
B665(3) 0
B666(3) 0
B667(3) 0
B668(3) 0
B669(3) 0
B670(3) 0
B671(3) 0
B672(3) 0
B673(3) 0
B674(3) 0
B675(3) 0
B676(3) 0
B677(3) 0
B678(3) 0
B679(3) 0
B680(3) 0
B681(3) 0
B682(3) 0
B683(3) 0
B684(3) 0
B685(3) 0
B686(3) 0
B687(3) 0
B688(3) 0
B689(3) 0
B690(7) 0
B691(7) 0
B692(7) 0
B693(7) 0
B694(7) 0
B695(7) 0
B696(7) 0
B697(7) 0
B698(7) 0
B699(7) 0
B700(7) 0
B701(7) 0
B702(5) 0
B703(5) 0
B704(5) 0
B705(5) 0
B706(5) 0
B707(5) 0
B708(5) 0
B709(5) 0
B710(5) 0
B711(5) 0
B712(5) 0
B713(5) 0
B714(7) 0
B715(7) 0
B716(7) 0
B717(7) 0
B718(7) 0
B719(7) 0
B720(7) 0
B721(7) 0
B722(7) 0
B723(7) 0
B724(7) 0
B725(7) 0
B726(7) 0
B727(7) 0
B728(7) 0
B729(7) 0
B730(7) 0
B731(7) 0
B732(7) 0
B733(7) 0
B734(7) 0
B735(7) 0
B736(7) 0
B737(7) 0
B738(7) 0
B739(7) 0
B740(7) 0
B741(7) 0
B742(7) 0
B743(7) 0
B744(7) 0
B745(7) 0
B746(7) 0
B747(7) 0
B748(7) 0
B749(7) 0
B750(7) 1
B751(7) 1
B752(7) 1
B753(7) 1
B754(7) 0
B755(7) 0
B756(7) 0
B757(7) 0
B758(7) 0
B759(7) 0
B760(7) 0
B761(7) 0
B762(7) 0
B763(7) 0
B764(7) 0
B765(7) 0
B766(7) 0
B767(7) 0
B768(7) 0
B769(7) 0
B770(7) 0
B771(7) 0
B772(7) 0
B773(7) 0
B774(7) 0
B775(7) 0
B776(7) 0
B777(7) 0
B778(7) 0
B779(7) 0
B780(7) 0
B781(7) 0
B782(7) 0
B783(7) 0
B784(7) 0
B785(7) 0
B786(7) 0
B787(7) 0
B788(7) 0
B789(7) 0
B790(7) 0
B791(7) 0
B792(7) 0
B793(7) 0
B794(7) 0
B795(7) 0
B796(7) 0
B797(7) 0
B798(7) 0
B799(7) 0
B800(7) 0
B801(7) 0
B802(7) 0
B803(7) 0
B804(7) 0
B805(7) 0
B806(7) 0
B807(7) 0
B808(7) 0
B809(7) 0
B810(3) 0
B811(3) 0
B812(3) 0
B813(3) 0
B814(3) 0
B815(3) 0
B816(3) 0
B817(3) 0
B818(3) 0
B819(3) 0
B820(3) 0
B821(3) 0
B822(3) 0
B823(3) 0
B824(3) 0
B825(3) 0
B826(3) 0
B827(3) 0
B828(3) 0
B829(3) 0
B830(3) 0
B831(3) 0
B832(3) 0
B833(3) 0
B834(3) 0
B835(3) 0
B836(3) 0
B837(3) 0
B838(3) 0
B839(3) 0
B840(3) 0
B841(3) 0
B842(3) 0
B843(3) 0
B844(3) 0
B845(3) 0
B846(7) 0
B847(7) 0
B848(7) 0
B849(7) 0
B850(7) 0
B851(7) 0
B852(7) 0
B853(7) 0
B854(7) 0
B855(7) 0
B856(7) 0
B857(7) 0
B858(7) 0
B859(7) 0
B860(7) 0
B861(7) 0
B862(7) 0
B863(7) 0
B864(7) 0
B865(7) 0
B866(7) 0
B867(7) 0
B868(7) 0
B869(7) 0
B870(4) 0
B871(4) 0
B872(4) 0
B873(4) 0
B874(4) 0
B875(4) 0
B876(4) 0
B877(4) 0
B878(4) 0
B879(4) 0
B880(4) 0
B881(4) 0
B882(7) 0
B883(7) 0
B884(7) 0
B885(7) 0
B886(7) 0
B887(7) 0
B888(7) 0
B889(7) 0
B890(7) 0
B891(7) 0
B892(7) 0
B893(7) 0
B894(7) 0
B895(7) 0
B896(7) 0
B897(7) 0
B898(7) 0
B899(7) 0
B900(7) 0
B901(7) 0
B902(7) 1
B903(7) 1
B904(7) 1
B905(7) 1
B906(7) 0
B907(7) 0
B908(7) 0
B909(7) 0
B910(7) 0
B911(7) 0
B912(7) 0
B913(7) 0
B914(7) 0
B915(7) 0
B916(7) 0
B917(7) 0
B918(7) 0
B919(7) 0
B920(7) 0
B921(7) 0
B922(7) 0
B923(7) 0
B924(7) 0
B925(7) 0
B926(7) 0
B927(7) 0
B928(7) 0
B929(7) 0
B930(7) 0
B931(7) 0
B932(7) 0
B933(7) 0
B934(7) 0
B935(7) 0
B936(7) 0
B937(7) 0
B938(7) 0
B939(7) 0
B940(7) 0
B941(7) 0
B942(7) 0
B943(7) 0
B944(7) 0
B945(7) 0
B946(7) 0
B947(7) 0
B948(7) 0
B949(7) 0
B950(7) 0
B951(7) 0
B952(7) 0
B953(7) 0
B954(7) 0
B955(7) 0
B956(7) 0
B957(7) 0
B958(7) 0
B959(7) 0
B960(7) 0
B961(7) 0
B962(7) 0
B963(7) 0
B964(7) 0
B965(7) 0
B966(3) 0
B967(3) 0
B968(3) 0
B969(3) 0
B970(3) 0
B971(3) 0
B972(3) 0
B973(3) 0
B974(3) 0
B975(3) 0
B976(3) 0
B977(3) 0
B978(3) 0
B979(3) 0
B980(3) 0
B981(3) 0
B982(3) 0
B983(3) 0
B984(3) 0
B985(3) 0
B986(3) 0
B987(3) 0
B988(3) 0
B989(3) 0
B990(3) 0
B991(3) 0
B992(3) 0
B993(3) 0
B994(3) 0
B995(3) 0
B996(3) 0
B997(3) 0
B998(3) 0
B999(3) 0
B1000(3) 0
B1001(3) 0
B1002(7) 0
B1003(7) 0
B1004(7) 0
B1005(7) 0
B1006(7) 0
B1007(7) 0
B1008(7) 0
B1009(7) 0
B1010(7) 0
B1011(7) 0
B1012(7) 0
B1013(7) 0
B1014(7) 0
B1015(7) 0
B1016(7) 0
B1017(7) 0
B1018(7) 0
B1019(7) 0
B1020(7) 0
B1021(7) 0
B1022(7) 0
B1023(7) 0
B1024(7) 0
B1025(7) 0
B1026(7) 0
B1027(7) 0
B1028(7) 0
B1029(7) 0
B1030(7) 0
B1031(7) 0
B1032(7) 0
B1033(7) 0
B1034(7) 0
B1035(7) 0
B1036(7) 0
B1037(7) 0
B1038(4) 0
B1039(4) 0
B1040(4) 0
B1041(4) 0
B1042(4) 0
B1043(4) 0
B1044(4) 0
B1045(4) 0
B1046(4) 0
B1047(4) 0
B1048(4) 0
B1049(4) 0
B1050(7) 0
B1051(7) 0
B1052(7) 0
B1053(7) 0
B1054(7) 0
B1055(7) 0
B1056(7) 0
B1057(7) 0
B1058(7) 0
B1059(7) 0
B1060(7) 0
B1061(7) 0
B1062(7) 0
B1063(7) 0
B1064(7) 0
B1065(7) 0
B1066(7) 0
B1067(7) 0
B1068(7) 0
B1069(7) 0
B1070(7) 0
B1071(7) 0
B1072(7) 0
B1073(7) 0
B1074(7) 0
B1075(7) 0
B1076(7) 0
B1077(7) 0
B1078(7) 1
B1079(7) 1
B1080(7) 1
B1081(7) 1
B1082(7) 0
B1083(7) 0
B1084(7) 0
B1085(7) 0
B1086(7) 0
B1087(7) 0
B1088(7) 0
B1089(7) 0
B1090(7) 0
B1091(7) 0
B1092(7) 0
B1093(7) 0
B1094(7) 0
B1095(7) 0
B1096(7) 0
B1097(7) 0
B1098(7) 0
B1099(7) 0
B1100(7) 0
B1101(7) 0
B1102(7) 0
B1103(7) 0
B1104(7) 0
B1105(7) 0
B1106(7) 0
B1107(7) 0
B1108(7) 0
B1109(7) 0
B1110(7) 0
B1111(7) 0
B1112(7) 0
B1113(7) 0
B1114(7) 0
B1115(7) 0
B1116(7) 0
B1117(7) 0
B1118(7) 0
B1119(7) 0
B1120(7) 0
B1121(7) 0
B1122(3) 0
B1123(3) 0
B1124(3) 0
B1125(3) 0
B1126(3) 0
B1127(3) 0
B1128(3) 0
B1129(3) 0
B1130(3) 0
B1131(3) 0
B1132(3) 0
B1133(3) 0
B1134(3) 0
B1135(3) 0
B1136(3) 0
B1137(3) 0
B1138(3) 0
B1139(3) 0
B1140(3) 0
B1141(3) 0
B1142(3) 0
B1143(3) 0
B1144(3) 0
B1145(3) 0
B1146(3) 0
B1147(3) 0
B1148(3) 0
B1149(3) 0
B1150(3) 0
B1151(3) 0
B1152(3) 0
B1153(3) 0
B1154(3) 1
B1155(3) 1
B1156(3) 1
B1157(3) 1
B1158(7) 0
B1159(7) 0
B1160(7) 0
B1161(7) 0
B1162(7) 0
B1163(7) 0
B1164(7) 0
B1165(7) 0
B1166(7) 0
B1167(7) 0
B1168(7) 0
B1169(7) 0
B1170(7) 0
B1171(7) 0
B1172(7) 0
B1173(7) 0
B1174(7) 0
B1175(7) 0
B1176(7) 0
B1177(7) 0
B1178(7) 0
B1179(7) 0
B1180(7) 0
B1181(7) 0
B1182(7) 0
B1183(7) 0
B1184(7) 0
B1185(7) 0
B1186(7) 0
B1187(7) 0
B1188(7) 0
B1189(7) 0
B1190(7) 0
B1191(7) 0
B1192(7) 0
B1193(7) 0
B1194(7) 0
B1195(7) 0
B1196(7) 0
B1197(7) 0
B1198(7) 0
B1199(7) 0
B1200(7) 0
B1201(7) 0
B1202(7) 0
B1203(7) 0
B1204(7) 0
B1205(7) 0
B1206(4) 0
B1207(4) 0
B1208(4) 0
B1209(4) 0
B1210(4) 0
B1211(4) 0
B1212(4) 0
B1213(4) 0
B1214(4) 0
B1215(4) 0
B1216(4) 0
B1217(4) 0
B1218(7) 0
B1219(7) 0
B1220(7) 0
B1221(7) 0
B1222(7) 0
B1223(7) 0
B1224(7) 0
B1225(7) 0
B1226(7) 0
B1227(7) 0
B1228(7) 0
B1229(7) 0
B1230(7) 0
B1231(7) 0
B1232(7) 0
B1233(7) 0
B1234(7) 0
B1235(7) 0
B1236(7) 0
B1237(7) 0
B1238(7) 0
B1239(7) 0
B1240(7) 0
B1241(7) 0
B1242(7) 0
B1243(7) 0
B1244(7) 0
B1245(7) 0
B1246(7) 0
B1247(7) 0
B1248(7) 0
B1249(7) 0
B1250(7) 0
B1251(7) 0
B1252(7) 0
B1253(7) 0
B1254(7) 0
B1255(7) 0
B1256(7) 0
B1257(7) 0
B1258(7) 0
B1259(7) 0
B1260(7) 0
B1261(7) 0
B1262(7) 0
B1263(7) 0
B1264(7) 0
B1265(7) 0
B1266(7) 0
B1267(7) 0
B1268(7) 0
B1269(7) 0
B1270(7) 0
B1271(7) 0
B1272(7) 0
B1273(7) 0
B1274(7) 0
B1275(7) 0
B1276(7) 0
B1277(7) 0
B1278(3) 0
B1279(3) 0
B1280(3) 0
B1281(3) 0
B1282(3) 0
B1283(3) 0
B1284(3) 0
B1285(3) 0
B1286(3) 0
B1287(3) 0
B1288(3) 0
B1289(3) 0
B1290(3) 0
B1291(3) 0
B1292(3) 0
B1293(3) 0
B1294(3) 0
B1295(3) 0
B1296(3) 0
B1297(3) 0
B1298(3) 0
B1299(3) 0
B1300(3) 0
B1301(3) 0
B1302(3) 0
B1303(3) 0
B1304(3) 0
B1305(3) 0
B1306(3) 0
B1307(3) 0
B1308(3) 0
B1309(3) 0
B1310(3) 0
B1311(3) 0
B1312(3) 0
B1313(3) 0
B1314(7) 0
B1315(7) 0
B1316(7) 0
B1317(7) 0
B1318(7) 0
B1319(7) 0
B1320(7) 0
B1321(7) 0
B1322(7) 0
B1323(7) 0
B1324(7) 0
B1325(7) 0
B1326(7) 0
B1327(7) 0
B1328(7) 0
B1329(7) 0
B1330(7) 0
B1331(7) 0
B1332(7) 0
B1333(7) 0
B1334(7) 0
B1335(7) 0
B1336(7) 0
B1337(7) 0
B1338(7) 0
B1339(7) 0
B1340(7) 0
B1341(7) 0
B1342(7) 0
B1343(7) 0
B1344(7) 0
B1345(7) 0
B1346(7) 0
B1347(7) 0
B1348(7) 0
B1349(7) 0
B1350(7) 0
B1351(7) 0
B1352(7) 0
B1353(7) 0
B1354(7) 0
B1355(7) 0
B1356(7) 0
B1357(7) 0
B1358(7) 0
B1359(7) 0
B1360(7) 0
B1361(7) 0
B1362(7) 0
B1363(7) 0
B1364(7) 0
B1365(7) 0
B1366(7) 0
B1367(7) 0
B1368(7) 0
B1369(7) 0
B1370(7) 0
B1371(7) 0
B1372(7) 0
B1373(7) 0
B1374(4) 0
B1375(4) 0
B1376(4) 0
B1377(4) 0
B1378(4) 0
B1379(4) 0
B1380(4) 0
B1381(4) 0
B1382(4) 0
B1383(4) 0
B1384(4) 0
B1385(4) 0
B1386(7) 0
B1387(7) 0
B1388(7) 0
B1389(7) 0
B1390(7) 0
B1391(7) 0
B1392(7) 0
B1393(7) 0
B1394(7) 0
B1395(7) 0
B1396(7) 0
B1397(7) 0
B1398(7) 0
B1399(7) 0
B1400(7) 0
B1401(7) 0
B1402(7) 0
B1403(7) 0
B1404(7) 0
B1405(7) 0
B1406(7) 0
B1407(7) 0
B1408(7) 0
B1409(7) 0
B1410(7) 1
B1411(7) 1
B1412(7) 1
B1413(7) 1
B1414(7) 0
B1415(7) 0
B1416(7) 0
B1417(7) 0
B1418(7) 0
B1419(7) 0
B1420(7) 0
B1421(7) 0
B1422(7) 0
B1423(7) 0
B1424(7) 0
B1425(7) 0
B1426(7) 0
B1427(7) 0
B1428(7) 0
B1429(7) 0
B1430(7) 0
B1431(7) 0
B1432(7) 0
B1433(7) 0
B1434(3) 0
B1435(3) 0
B1436(3) 0
B1437(3) 0
B1438(3) 0
B1439(3) 0
B1440(3) 0
B1441(3) 0
B1442(3) 0
B1443(3) 0
B1444(3) 0
B1445(3) 0
B1446(3) 0
B1447(3) 0
B1448(3) 0
B1449(3) 0
B1450(3) 1
B1451(3) 1
B1452(3) 1
B1453(3) 1
B1454(3) 0
B1455(3) 0
B1456(3) 0
B1457(3) 0
B1458(3) 0
B1459(3) 0
B1460(3) 0
B1461(3) 0
B1462(3) 0
B1463(3) 0
B1464(3) 0
B1465(3) 0
B1466(3) 0
B1467(3) 0
B1468(3) 0
B1469(3) 0
B1470(7) 0
B1471(7) 0
B1472(7) 0
B1473(7) 0
B1474(7) 0
B1475(7) 0
B1476(7) 0
B1477(7) 0
B1478(7) 0
B1479(7) 0
B1480(7) 0
B1481(7) 0
B1482(7) 0
B1483(7) 0
B1484(7) 0
B1485(7) 0
B1486(7) 0
B1487(7) 0
B1488(7) 0
B1489(7) 0
B1490(7) 0
B1491(7) 0
B1492(7) 0
B1493(7) 0
B1494(7) 0
B1495(7) 0
B1496(7) 0
B1497(7) 0
B1498(7) 0
B1499(7) 0
B1500(7) 0
B1501(7) 0
B1502(7) 0
B1503(7) 0
B1504(7) 0
B1505(7) 0
B1506(7) 0
B1507(7) 0
B1508(7) 0
B1509(7) 0
B1510(7) 0
B1511(7) 0
B1512(7) 0
B1513(7) 0
B1514(7) 0
B1515(7) 0
B1516(7) 0
B1517(7) 0
B1518(7) 0
B1519(7) 0
B1520(7) 0
B1521(7) 0
B1522(7) 0
B1523(7) 0
B1524(7) 0
B1525(7) 0
B1526(7) 0
B1527(7) 0
B1528(7) 0
B1529(7) 0
B1530(7) 0
B1531(7) 0
B1532(7) 0
B1533(7) 0
B1534(7) 0
B1535(7) 0
B1536(7) 0
B1537(7) 0
B1538(7) 0
B1539(7) 0
B1540(7) 0
B1541(7) 0
B1542(5) 0
B1543(5) 0
B1544(5) 0
B1545(5) 0
B1546(5) 0
B1547(5) 0
B1548(5) 0
B1549(5) 0
B1550(5) 0
B1551(5) 0
B1552(5) 0
B1553(5) 0
B1554(7) 0
B1555(7) 0
B1556(7) 0
B1557(7) 0
B1558(7) 0
B1559(7) 0
B1560(7) 0
B1561(7) 0
B1562(7) 0
B1563(7) 0
B1564(7) 0
B1565(7) 0
B1566(7) 0
B1567(7) 0
B1568(7) 0
B1569(7) 0
B1570(7) 0
B1571(7) 0
B1572(7) 0
B1573(7) 0
B1574(7) 0
B1575(7) 0
B1576(7) 0
B1577(7) 0
B1578(7) 0
B1579(7) 0
B1580(7) 0
B1581(7) 0
B1582(7) 0
B1583(7) 0
B1584(7) 0
B1585(7) 0
B1586(7) 0
B1587(7) 0
B1588(7) 0
B1589(7) 0
B1590(3) 0
B1591(3) 0
B1592(3) 0
B1593(3) 0
B1594(3) 0
B1595(3) 0
B1596(3) 0
B1597(3) 0
B1598(3) 0
B1599(3) 0
B1600(3) 0
B1601(3) 0
B1602(3) 0
B1603(3) 0
B1604(3) 0
B1605(3) 0
B1606(3) 0
B1607(3) 0
B1608(3) 0
B1609(3) 0
B1610(3) 0
B1611(3) 0
B1612(3) 0
B1613(3) 0
B1614(3) 0
B1615(3) 0
B1616(3) 0
B1617(3) 0
B1618(3) 0
B1619(3) 0
B1620(3) 0
B1621(3) 0
B1622(3) 0
B1623(3) 0
B1624(3) 0
B1625(3) 0
B1626(7) 0
B1627(7) 0
B1628(7) 0
B1629(7) 0
B1630(7) 0
B1631(7) 0
B1632(7) 0
B1633(7) 0
B1634(7) 0
B1635(7) 0
B1636(7) 0
B1637(7) 0
B1638(7) 0
B1639(7) 0
B1640(7) 0
B1641(7) 0
B1642(7) 0
B1643(7) 0
B1644(7) 0
B1645(7) 0
B1646(7) 0
B1647(7) 0
B1648(7) 0
B1649(7) 0
B1650(7) 0
B1651(7) 0
B1652(7) 0
B1653(7) 0
B1654(7) 0
B1655(7) 0
B1656(7) 0
B1657(7) 0
B1658(7) 0
B1659(7) 0
B1660(7) 0
B1661(7) 0
B1662(7) 0
B1663(7) 0
B1664(7) 0
B1665(7) 0
B1666(7) 1
B1667(7) 1
B1668(7) 1
B1669(7) 1
B1670(7) 0
B1671(7) 0
B1672(7) 0
B1673(7) 0
B1674(7) 0
B1675(7) 0
B1676(7) 0
B1677(7) 0
B1678(7) 0
B1679(7) 0
B1680(7) 0
B1681(7) 0
B1682(7) 0
B1683(7) 0
B1684(7) 0
B1685(7) 0
B1686(7) 0
B1687(7) 0
B1688(7) 0
B1689(7) 0
B1690(7) 0
B1691(7) 0
B1692(7) 0
B1693(7) 0
B1694(7) 0
B1695(7) 0
B1696(7) 0
B1697(7) 0
B1698(7) 0
B1699(7) 0
B1700(7) 0
B1701(7) 0
B1702(7) 0
B1703(7) 0
B1704(7) 0
B1705(7) 0
B1706(7) 0
B1707(7) 0
B1708(7) 0
B1709(7) 0
B1710(4) 0
B1711(4) 0
B1712(4) 0
B1713(4) 0
B1714(4) 0
B1715(4) 0
B1716(4) 0
B1717(4) 0
B1718(4) 0
B1719(4) 0
B1720(4) 0
B1721(4) 0
B1722(7) 0
B1723(7) 0
B1724(7) 0
B1725(7) 0
B1726(7) 0
B1727(7) 0
B1728(7) 0
B1729(7) 0
B1730(7) 0
B1731(7) 0
B1732(7) 0
B1733(7) 0
B1734(7) 0
B1735(7) 0
B1736(7) 0
B1737(7) 0
B1738(7) 0
B1739(7) 0
B1740(7) 0
B1741(7) 0
B1742(7) 0
B1743(7) 0
B1744(7) 0
B1745(7) 0
B1746(3) 1
B1747(3) 1
B1748(3) 1
B1749(3) 1
B1750(3) 0
B1751(3) 0
B1752(3) 0
B1753(3) 0
B1754(3) 0
B1755(3) 0
B1756(3) 0
B1757(3) 0
B1758(3) 0
B1759(3) 0
B1760(3) 0
B1761(3) 0
B1762(3) 0
B1763(3) 0
B1764(3) 0
B1765(3) 0
B1766(3) 0
B1767(3) 0
B1768(3) 0
B1769(3) 0
B1770(3) 0
B1771(3) 0
B1772(3) 0
B1773(3) 0
B1774(3) 0
B1775(3) 0
B1776(3) 0
B1777(3) 0
B1778(3) 0
B1779(3) 0
B1780(3) 0
B1781(3) 0
B1782(7) 0
B1783(7) 0
B1784(7) 0
B1785(7) 0
B1786(7) 0
B1787(7) 0
B1788(7) 0
B1789(7) 0
B1790(7) 0
B1791(7) 0
B1792(7) 0
B1793(7) 0
B1794(7) 0
B1795(7) 0
B1796(7) 0
B1797(7) 0
B1798(7) 0
B1799(7) 0
B1800(7) 0
B1801(7) 0
B1802(7) 0
B1803(7) 0
B1804(7) 0
B1805(7) 0
B1806(7) 0
B1807(7) 0
B1808(7) 0
B1809(7) 0
B1810(7) 0
B1811(7) 0
B1812(7) 0
B1813(7) 0
B1814(7) 0
B1815(7) 0
B1816(7) 0
B1817(7) 0
B1818(7) 0
B1819(7) 0
B1820(7) 0
B1821(7) 0
B1822(7) 0
B1823(7) 0
B1824(7) 0
B1825(7) 0
B1826(7) 0
B1827(7) 0
B1828(7) 0
B1829(7) 0
B1830(7) 0
B1831(7) 0
B1832(7) 0
B1833(7) 0
B1834(7) 0
B1835(7) 0
B1836(7) 0
B1837(7) 0
B1838(7) 0
B1839(7) 0
B1840(7) 0
B1841(7) 0
B1842(7) 0
B1843(7) 0
B1844(7) 0
B1845(7) 0
B1846(7) 0
B1847(7) 0
B1848(7) 0
B1849(7) 0
B1850(7) 0
B1851(7) 0
B1852(7) 0
B1853(7) 0
B1854(7) 0
B1855(7) 0
B1856(7) 0
B1857(7) 0
B1858(7) 0
B1859(7) 0
B1860(7) 0
B1861(7) 0
B1862(7) 0
B1863(7) 0
B1864(7) 0
B1865(7) 0
B1866(7) 0
B1867(7) 0
B1868(7) 0
B1869(7) 0
B1870(7) 0
B1871(7) 0
B1872(7) 0
B1873(7) 0
B1874(7) 0
B1875(7) 0
B1876(7) 0
B1877(7) 0
B1878(5) 0
B1879(5) 0
B1880(5) 0
B1881(5) 0
B1882(5) 0
B1883(5) 0
B1884(5) 0
B1885(5) 0
B1886(5) 0
B1887(5) 0
B1888(5) 0
B1889(5) 0
B1890(7) 0
B1891(7) 0
B1892(7) 0
B1893(7) 0
B1894(7) 0
B1895(7) 0
B1896(7) 0
B1897(7) 0
B1898(7) 0
B1899(7) 0
B1900(7) 0
B1901(7) 0
B1902(3) 0
B1903(3) 0
B1904(3) 0
B1905(3) 0
B1906(3) 0
B1907(3) 0
B1908(3) 0
B1909(3) 0
B1910(3) 0
B1911(3) 0
B1912(3) 0
B1913(3) 0
B1914(3) 0
B1915(3) 0
B1916(3) 0
B1917(3) 0
B1918(3) 0
B1919(3) 0
B1920(3) 0
B1921(3) 0
B1922(3) 0
B1923(3) 0
B1924(3) 0
B1925(3) 0
B1926(3) 0
B1927(3) 0
B1928(3) 0
B1929(3) 0
B1930(3) 0
B1931(3) 0
B1932(3) 0
B1933(3) 0
B1934(3) 0
B1935(3) 0
B1936(3) 0
B1937(3) 0
B1938(7) 0
B1939(7) 0
B1940(7) 0
B1941(7) 0
B1942(7) 0
B1943(7) 0
B1944(7) 0
B1945(7) 0
B1946(7) 0
B1947(7) 0
B1948(7) 0
B1949(7) 0
B1950(7) 1
B1951(7) 1
B1952(7) 1
B1953(7) 1
B1954(7) 0
B1955(7) 0
B1956(7) 0
B1957(7) 0
B1958(7) 0
B1959(7) 0
B1960(7) 0
B1961(7) 0
B1962(7) 0
B1963(7) 0
B1964(7) 0
B1965(7) 0
B1966(7) 0
B1967(7) 0
B1968(7) 0
B1969(7) 0
B1970(7) 0
B1971(7) 0
B1972(7) 0
B1973(7) 0
B1974(7) 0
B1975(7) 0
B1976(7) 0
B1977(7) 0
B1978(7) 0
B1979(7) 0
B1980(7) 0
B1981(7) 0
B1982(7) 0
B1983(7) 0
B1984(7) 0
B1985(7) 0
B1986(7) 0
B1987(7) 0
B1988(7) 0
B1989(7) 0
B1990(7) 0
B1991(7) 0
B1992(7) 0
B1993(7) 0
B1994(7) 0
B1995(7) 0
B1996(7) 0
B1997(7) 0
B1998(7) 0
B1999(7) 0
B2000(7) 0
B2001(7) 0
B2002(7) 0
B2003(7) 0
B2004(7) 0
B2005(7) 0
B2006(7) 0
B2007(7) 0
B2008(7) 0
B2009(7) 0
B2010(7) 0
B2011(7) 0
B2012(7) 0
B2013(7) 0
B2014(7) 0
B2015(7) 0
B2016(7) 0
B2017(7) 0
B2018(7) 0
B2019(7) 0
B2020(7) 0
B2021(7) 0
B2022(7) 0
B2023(7) 0
B2024(7) 0
B2025(7) 0
B2026(7) 0
B2027(7) 0
B2028(7) 0
B2029(7) 0
B2030(7) 0
B2031(7) 0
B2032(7) 0
B2033(7) 0
B2034(7) 0
B2035(7) 0
B2036(7) 0
B2037(7) 0
B2038(7) 0
B2039(7) 0
B2040(7) 0
B2041(7) 0
B2042(7) 0
B2043(7) 0
B2044(7) 0
B2045(7) 0
B2046(4) 0
B2047(4) 0
B2048(4) 0
B2049(4) 0
B2050(4) 0
B2051(4) 0
B2052(4) 0
B2053(4) 0
B2054(4) 0
B2055(4) 0
B2056(4) 0
B2057(4) 0
C2058(11) 0
C2059(11) 0
C2060(11) 0
C2061(11) 0
C2062(11) 0
C2063(11) 0
C2064(11) 0
C2065(11) 0
C2066(11) 0
C2067(11) 0
C2068(11) 0
C2069(11) 0
C2070(36) 7.0166666666666515e+00
C2071(36) 7.0166666666666515e+00
C2072(36) 7.0166666666666515e+00
C2073(36) 7.0166666666666515e+00
C2074(36) 4.1616666666666617e+01
C2075(36) 6.6616666666666617e+01
C2076(36) 8.6616666666666617e+01
C2077(36) 6.1616666666666617e+01
C2078(36) 3.3999999999999773e+00
C2079(36) 3.3999999999999773e+00
C2080(36) 3.3999999999999773e+00
C2081(36) 3.3999999999999773e+00
C2082(36) 3.6083333333333371e+01
C2083(36) 5.6083333333333371e+01
C2084(36) 5.6083333333333371e+01
C2085(36) 2.6083333333333371e+01
C2086(36) 2.8133333333333326e+01
C2087(36) 1.8133333333333326e+01
C2088(36) 5.3133333333333326e+01
C2089(36) 1.8133333333333326e+01
C2090(36) 5.3216666666666640e+01
C2091(36) 1.0321666666666664e+02
C2092(36) 1.1821666666666664e+02
C2093(36) 8.3216666666666640e+01
C2094(36) 7.5450000000000045e+01
C2095(36) 7.5450000000000045e+01
C2096(36) 1.0045000000000005e+02
C2097(36) 4.0450000000000045e+01
C2098(36) 5.6000000000000227e+00
C2099(36) 5.6000000000000227e+00
C2100(36) 5.6000000000000227e+00
C2101(36) 5.6000000000000227e+00
C2102(36) 1.2648333333333329e+02
C2103(36) 1.4148333333333329e+02
C2104(36) 1.3148333333333329e+02
C2105(36) 1.0148333333333329e+02
C2106(36) 1.9849999999999966e+01
C2107(36) 5.4849999999999966e+01
C2108(36) 3.4849999999999966e+01
C2109(36) 2.4849999999999966e+01
C2110(11) 0
C2111(11) 0
C2112(11) 0
C2113(11) 0
C2114(11) 0
C2115(11) 0
C2116(11) 0
C2117(11) 0
C2118(11) 0
C2119(11) 0
C2120(11) 0
C2121(11) 0
C2122(22) 20
C2123(22) 90
C2124(22) 50
C2125(22) 30
C2126(22) 65
C2127(22) 160
C2128(22) 180
C2129(22) 120
C2130(22) 45
C2131(22) 25
C2132(22) 90
C2133(22) 20
C2134(22) 125
C2135(22) 125
C2136(22) 170
C2137(22) 45
C2138(22) 135
C2139(22) 65
C2140(22) 130
C2141(22) 45
C2142(22) 205
C2143(22) 230
C2144(22) 205
C2145(22) 150
C2146(22) 185
C2147(22) 205
C2148(22) 230
C2149(22) 60
C2150(22) 55
C2151(22) 90
C2152(22) 90
C2153(22) 25
C2154(22) 600
C2155(22) 600
C2156(22) 600
C2157(22) 600
C2158(22) 55
C2159(22) 100
C2160(22) 140
C2161(22) 90
I2162(1) 1
I2163(1) 1
I2164(1) 1
I2165(1) 1
I2166(1) 1
I2167(1) 1
I2168(1) 1
I2169(1) 1
I2170(1) 1
I2171(1) 1
I2172(1) 1
I2173(1) 1
